(set-logic ALL)
(set-option :produce-models true)
(declare-sort BoundSet 0)
(declare-sort UnboundSet 0)
(set-option :finite-model-find true)
(declare-fun IsInAlaska (BoundSet) Bool)
(declare-fun HasCyclicalSwings (BoundSet) Bool)
(declare-fun HasClimate (BoundSet) Bool)
(declare-fun Is300YearLong (BoundSet) Bool)
(declare-fun IsThere (BoundSet) Bool)
(declare-fun IsMedieval (BoundSet) Bool)
(declare-fun HasHeatWave (BoundSet) Bool)
(assert (not (=> (and (exists ((c BoundSet)) (exists ((a BoundSet)) (exists ((b BoundSet)) (and (IsInAlaska a) (and (HasCyclicalSwings b) (HasClimate c)))))) (forall ((h BoundSet)) (forall ((i BoundSet)) (=> (IsInAlaska h) (Is300YearLong i))))) (exists ((e BoundSet)) (exists ((d BoundSet)) (exists ((f BoundSet)) (exists ((g BoundSet)) (and (IsThere d) (and (and (Is300YearLong e) (IsMedieval f)) (HasHeatWave g))))))))))
(check-sat)
(get-model)